%%%mzn-stat: initTime=0.004836595
%%%mzn-stat: objective=437
%%%mzn-stat: nodes=585
%%%mzn-stat: restarts=0
%%%mzn-stat: peakDepth=137
%%%mzn-stat: solveTime=0.055740091
%%%mzn-stat: variables=554
%%%mzn-stat: propagators=392
%%%mzn-stat: failures=440
%%%mzn-stat: propagations=135191
%%%mzn-stat: nogoods=440
%%%mzn-stat: AverageConflictSize=2.0045454545454544
%%%mzn-stat: NumUnitNogoodsLearned=436
%%%mzn-stat: AverageLearnedNogoodLength=1.6363636363636365
%%%mzn-stat: AverageBacktrackAmount=0
%%%mzn-stat: AverageLbd=1.0568181818181819
%%%mzn-stat-end
maxleg = 437;
succ = array1d(1..20,[10, 16, 14, 1, 4, 12, 2, 19, 18, 3, 9, 7, 15, 11, 20, 5, 13, 17, 6, 8]);
% time elapsed: 9.63 s
----------
==========
% time elapsed: 9.63 s
%%%mzn-stat: initTime=0.004836595
%%%mzn-stat: objective=437
%%%mzn-stat: nodes=585
%%%mzn-stat: restarts=0
%%%mzn-stat: peakDepth=137
%%%mzn-stat: solveTime=0.055747227
%%%mzn-stat: variables=554
%%%mzn-stat: propagators=392
%%%mzn-stat: failures=440
%%%mzn-stat: propagations=135191
%%%mzn-stat: nogoods=440
%%%mzn-stat: AverageConflictSize=2.0045454545454544
%%%mzn-stat: NumUnitNogoodsLearned=436
%%%mzn-stat: AverageLearnedNogoodLength=1.6363636363636365
%%%mzn-stat: AverageBacktrackAmount=0
%%%mzn-stat: AverageLbd=1.0568181818181819
%%%mzn-stat-end
